TYPE : TSP
DIMENSION : 10
EDGE_WEIGHT_TYPE : EUC_3D
NODE_COORD_SECTION
1 -1315 1977 3500 
2 -2017 -1379 4601 
3 -2711 243 5435 
4 -4076 456 5620 
5 -5292 -946 4785 
6 -5767 3701 3231 
7 -4925 -3683 2855 
8 -3734 396 1907 
9 -3194 -807 1965 
10 -1425 478 2002 
